NAME : HealthcareRouting.24439.tour
COMMENT : Length = 24439
COMMENT : Found by LKH-3 [Keld Helsgaun] Sun Apr 20 17:06:50 2025
TYPE : TOUR
DIMENSION : 68
TOUR_SECTION
58
36
1
25
42
49
18
3
61
32
16
34
4
39
64
11
48
13
21
65
23
15
51
7
41
43
29
53
68
17
63
60
46
2
28
62
38
57
24
31
47
66
40
67
27
8
45
12
56
5
10
54
35
55
14
6
44
9
26
20
33
50
22
19
37
59
52
30
-1
EOF
